#=======================================================
# FHI-aims file: pt.in
# Created using the Atomic Simulation Environment (ASE)
# Tue Oct 12 09:17:36 2021
#=======================================================
lattice_vector 3.9199999999999999 0.0000000000000000 0.0000000000000000 
lattice_vector 0.0000000000000000 3.9199999999999999 0.0000000000000000 
lattice_vector 0.0000000000000000 0.0000000000000000 3.9199999999999999 
atom 0.0000000000000000 0.0000000000000000 0.0000000000000000 Pt
atom 0.0000000000000000 1.9600000000000000 1.9600000000000000 Pt
atom 1.9600000000000000 0.0000000000000000 1.9600000000000000 Pt
atom 1.9600000000000000 1.9600000000000000 0.0000000000000000 Pt
