#=======================================================
# FHI-aims file: pt111.in
# Created using the Atomic Simulation Environment (ASE)
# Mon Sep 13 20:59:11 2021
#=======================================================
lattice_vector 13.8592929840087891 0.0000000000000000 0.0000000000000000 
lattice_vector 6.9296464920043945 12.0024995803833008 0.0000000000000000 
lattice_vector 0.0000000000000000 0.0000000000000000 16.7896385192871094 
atom 0.0000000000000000 0.0000000000000000 5.0000000000000000 Pt
atom 2.7718586921691895 0.0000000000000000 5.0000000000000000 Pt
atom 5.5437173843383789 0.0000000000000000 5.0000000000000000 Pt
atom 8.3155755996704102 0.0000000000000000 5.0000000000000000 Pt
atom 11.0874347686767578 0.0000000000000000 5.0000000000000000 Pt
atom 1.3859293460845947 2.4005000591278076 5.0000000000000000 Pt
atom 4.1577877998352051 2.4005000591278076 5.0000000000000000 Pt
atom 6.9296464920043945 2.4005000591278076 5.0000000000000000 Pt
atom 9.7015047073364258 2.4005000591278076 5.0000000000000000 Pt
atom 12.4733638763427734 2.4005000591278076 5.0000000000000000 Pt
atom 2.7718586921691895 4.8010001182556152 5.0000000000000000 Pt
atom 5.5437173843383789 4.8010001182556152 5.0000000000000000 Pt
atom 8.3155755996704102 4.8010001182556152 5.0000000000000000 Pt
atom 11.0874347686767578 4.8010001182556152 5.0000000000000000 Pt
atom 13.8592929840087891 4.8010001182556152 5.0000000000000000 Pt
atom 4.1577877998352051 7.2014999389648438 5.0000000000000000 Pt
atom 6.9296464920043945 7.2014999389648438 5.0000000000000000 Pt
atom 9.7015047073364258 7.2014999389648438 5.0000000000000000 Pt
atom 12.4733638763427734 7.2014999389648438 5.0000000000000000 Pt
atom 15.2452220916748047 7.2014999389648438 5.0000000000000000 Pt
atom 5.5437173843383789 9.6020002365112305 5.0000000000000000 Pt
atom 8.3155755996704102 9.6020002365112305 5.0000000000000000 Pt
atom 11.0874347686767578 9.6020002365112305 5.0000000000000000 Pt
atom 13.8592929840087891 9.6020002365112305 5.0000000000000000 Pt
atom 16.6311511993408203 9.6020002365112305 5.0000000000000000 Pt
atom 1.3859293460845947 0.8001666665077209 7.2632131576538086 Pt
atom 4.1577877998352051 0.8001666665077209 7.2632131576538086 Pt
atom 6.9296464920043945 0.8001666665077209 7.2632131576538086 Pt
atom 9.7015047073364258 0.8001666665077209 7.2632131576538086 Pt
atom 12.4733638763427734 0.8001666665077209 7.2632131576538086 Pt
atom 2.7718586921691895 3.2006666660308838 7.2632131576538086 Pt
atom 5.5437173843383789 3.2006666660308838 7.2632131576538086 Pt
atom 8.3155755996704102 3.2006666660308838 7.2632131576538086 Pt
atom 11.0874347686767578 3.2006666660308838 7.2632131576538086 Pt
atom 13.8592929840087891 3.2006666660308838 7.2632131576538086 Pt
atom 4.1577877998352051 5.6011667251586914 7.2632131576538086 Pt
atom 6.9296464920043945 5.6011667251586914 7.2632131576538086 Pt
atom 9.7015047073364258 5.6011667251586914 7.2632131576538086 Pt
atom 12.4733638763427734 5.6011667251586914 7.2632131576538086 Pt
atom 15.2452220916748047 5.6011667251586914 7.2632131576538086 Pt
atom 5.5437173843383789 8.0016660690307617 7.2632131576538086 Pt
atom 8.3155755996704102 8.0016660690307617 7.2632131576538086 Pt
atom 11.0874347686767578 8.0016660690307617 7.2632131576538086 Pt
atom 13.8592929840087891 8.0016660690307617 7.2632131576538086 Pt
atom 16.6311511993408203 8.0016660690307617 7.2632131576538086 Pt
atom 6.9296464920043945 10.4021663665771484 7.2632131576538086 Pt
atom 9.7015047073364258 10.4021663665771484 7.2632131576538086 Pt
atom 12.4733638763427734 10.4021663665771484 7.2632131576538086 Pt
atom 15.2452220916748047 10.4021663665771484 7.2632131576538086 Pt
atom 18.0170803070068359 10.4021663665771484 7.2632131576538086 Pt
atom -0.0000000000000000 1.6003333330154419 9.5264263153076172 Pt
atom 2.7718586921691895 1.6003333330154419 9.5264263153076172 Pt
atom 5.5437173843383789 1.6003333330154419 9.5264263153076172 Pt
atom 8.3155755996704102 1.6003333330154419 9.5264263153076172 Pt
atom 11.0874347686767578 1.6003333330154419 9.5264263153076172 Pt
atom 1.3859293460845947 4.0008330345153809 9.5264263153076172 Pt
atom 4.1577877998352051 4.0008330345153809 9.5264263153076172 Pt
atom 6.9296464920043945 4.0008330345153809 9.5264263153076172 Pt
atom 9.7015047073364258 4.0008330345153809 9.5264263153076172 Pt
atom 12.4733638763427734 4.0008330345153809 9.5264263153076172 Pt
atom 2.7718586921691895 6.4013333320617676 9.5264263153076172 Pt
atom 5.5437173843383789 6.4013333320617676 9.5264263153076172 Pt
atom 8.3155755996704102 6.4013333320617676 9.5264263153076172 Pt
atom 11.0874347686767578 6.4013333320617676 9.5264263153076172 Pt
atom 13.8592929840087891 6.4013333320617676 9.5264263153076172 Pt
atom 4.1577877998352051 8.8018331527709961 9.5264263153076172 Pt
atom 6.9296464920043945 8.8018331527709961 9.5264263153076172 Pt
atom 9.7015047073364258 8.8018331527709961 9.5264263153076172 Pt
atom 12.4733638763427734 8.8018331527709961 9.5264263153076172 Pt
atom 15.2452220916748047 8.8018331527709961 9.5264263153076172 Pt
atom 5.5437173843383789 11.2023334503173828 9.5264263153076172 Pt
atom 8.3155755996704102 11.2023334503173828 9.5264263153076172 Pt
atom 11.0874347686767578 11.2023334503173828 9.5264263153076172 Pt
atom 13.8592929840087891 11.2023334503173828 9.5264263153076172 Pt
atom 16.6311511993408203 11.2023334503173828 9.5264263153076172 Pt
atom 0.0000000000000000 0.0000000000000000 11.7896394729614258 Pt
atom 2.7718586921691895 0.0000000000000000 11.7896394729614258 Pt
atom 5.5437173843383789 0.0000000000000000 11.7896394729614258 Pt
atom 8.3155755996704102 0.0000000000000000 11.7896394729614258 Pt
atom 11.0874347686767578 0.0000000000000000 11.7896394729614258 Pt
atom 1.3859293460845947 2.4005000591278076 11.7896394729614258 Pt
atom 4.1577877998352051 2.4005000591278076 11.7896394729614258 Pt
atom 9.7015047073364258 2.4005000591278076 11.7896394729614258 Pt
atom 12.4733638763427734 2.4005000591278076 11.7896394729614258 Pt
atom 2.7718586921691895 4.8010001182556152 11.7896394729614258 Pt
atom 5.5437173843383789 4.8010001182556152 11.7896394729614258 Pt
atom 8.3155755996704102 4.8010001182556152 11.7896394729614258 Pt
atom 11.0874347686767578 4.8010001182556152 11.7896394729614258 Pt
atom 13.8592929840087891 4.8010001182556152 11.7896394729614258 Pt
atom 4.1577877998352051 7.2014999389648438 11.7896394729614258 Pt
atom 6.9296464920043945 7.2014999389648438 11.7896394729614258 Pt
atom 9.7015047073364258 7.2014999389648438 11.7896394729614258 Pt
atom 12.4733638763427734 7.2014999389648438 11.7896394729614258 Pt
atom 15.2452220916748047 7.2014999389648438 11.7896394729614258 Pt
atom 5.5437173843383789 9.6020002365112305 11.7896394729614258 Pt
atom 8.3155755996704102 9.6020002365112305 11.7896394729614258 Pt
atom 11.0874347686767578 9.6020002365112305 11.7896394729614258 Pt
atom 13.8592929840087891 9.6020002365112305 11.7896394729614258 Pt
atom 16.6311511993408203 9.6020002365112305 11.7896394729614258 Pt
