#=======================================================
# FHI-aims file: datas/h2o-2-2-2.in
# Created using the Atomic Simulation Environment (ASE)
# Thu Sep 17 15:13:43 2020
#=======================================================
lattice_vector 4.0000000000000000 0.0000000000000000 0.0000000000000000 
lattice_vector 0.0000000000000000 7.0529560000000000 0.0000000000000000 
lattice_vector 0.0000000000000000 0.0000000000000000 5.1926179999999995 
atom 1.0000000000000000 1.7632390000000000 1.5963089999999998 O
atom 1.0000000000000000 2.5264780000000000 0.9999999999999998 H
atom 1.0000000000000000 1.0000000000000000 0.9999999999999998 H
atom 1.0000000000000000 1.7632390000000000 4.1926179999999995 O
atom 1.0000000000000000 2.5264780000000000 3.5963089999999998 H
atom 1.0000000000000000 1.0000000000000000 3.5963089999999998 H
atom 1.0000000000000000 5.2897169999999996 1.5963089999999998 O
atom 1.0000000000000000 6.0529560000000000 0.9999999999999998 H
atom 1.0000000000000000 4.5264780000000000 0.9999999999999998 H
atom 1.0000000000000000 5.2897169999999996 4.1926179999999995 O
atom 1.0000000000000000 6.0529560000000000 3.5963089999999998 H
atom 1.0000000000000000 4.5264780000000000 3.5963089999999998 H
atom 3.0000000000000000 1.7632390000000000 1.5963089999999998 O
atom 3.0000000000000000 2.5264780000000000 0.9999999999999998 H
atom 3.0000000000000000 1.0000000000000000 0.9999999999999998 H
atom 3.0000000000000000 1.7632390000000000 4.1926179999999995 O
atom 3.0000000000000000 2.5264780000000000 3.5963089999999998 H
atom 3.0000000000000000 1.0000000000000000 3.5963089999999998 H
atom 3.0000000000000000 5.2897169999999996 1.5963089999999998 O
atom 3.0000000000000000 6.0529560000000000 0.9999999999999998 H
atom 3.0000000000000000 4.5264780000000000 0.9999999999999998 H
atom 3.0000000000000000 5.2897169999999996 4.1926179999999995 O
atom 3.0000000000000000 6.0529560000000000 3.5963089999999998 H
atom 3.0000000000000000 4.5264780000000000 3.5963089999999998 H
