#=======================================================
# FHI-aims file: datas/h2o-20-20-20.in
# Created using the Atomic Simulation Environment (ASE)
# Thu Sep 17 15:22:12 2020
#=======================================================
lattice_vector 40.0000000000000000 0.0000000000000000 0.0000000000000000 
lattice_vector 0.0000000000000000 70.5295600000000036 0.0000000000000000 
lattice_vector 0.0000000000000000 0.0000000000000000 51.9261799999999951 
atom 1.0000000000000000 1.7632390000000000 1.5963089999999998 O
atom 1.0000000000000000 2.5264780000000000 0.9999999999999998 H
atom 1.0000000000000000 1.0000000000000000 0.9999999999999998 H
atom 1.0000000000000000 1.7632390000000000 4.1926179999999995 O
atom 1.0000000000000000 2.5264780000000000 3.5963089999999998 H
atom 1.0000000000000000 1.0000000000000000 3.5963089999999998 H
atom 1.0000000000000000 1.7632390000000000 6.7889269999999993 O
atom 1.0000000000000000 2.5264780000000000 6.1926179999999995 H
atom 1.0000000000000000 1.0000000000000000 6.1926179999999995 H
atom 1.0000000000000000 1.7632390000000000 9.3852359999999990 O
atom 1.0000000000000000 2.5264780000000000 8.7889269999999993 H
atom 1.0000000000000000 1.0000000000000000 8.7889269999999993 H
atom 1.0000000000000000 1.7632390000000000 11.9815449999999988 O
atom 1.0000000000000000 2.5264780000000000 11.3852359999999990 H
atom 1.0000000000000000 1.0000000000000000 11.3852359999999990 H
atom 1.0000000000000000 1.7632390000000000 14.5778539999999985 O
atom 1.0000000000000000 2.5264780000000000 13.9815449999999988 H
atom 1.0000000000000000 1.0000000000000000 13.9815449999999988 H
atom 1.0000000000000000 1.7632390000000000 17.1741630000000001 O
atom 1.0000000000000000 2.5264780000000000 16.5778539999999985 H
atom 1.0000000000000000 1.0000000000000000 16.5778539999999985 H
atom 1.0000000000000000 1.7632390000000000 19.7704719999999980 O
atom 1.0000000000000000 2.5264780000000000 19.1741630000000001 H
atom 1.0000000000000000 1.0000000000000000 19.1741630000000001 H
atom 1.0000000000000000 1.7632390000000000 22.3667809999999960 O
atom 1.0000000000000000 2.5264780000000000 21.7704719999999980 H
atom 1.0000000000000000 1.0000000000000000 21.7704719999999980 H
atom 1.0000000000000000 1.7632390000000000 24.9630899999999940 O
atom 1.0000000000000000 2.5264780000000000 24.3667809999999960 H
atom 1.0000000000000000 1.0000000000000000 24.3667809999999960 H
atom 1.0000000000000000 1.7632390000000000 27.5593989999999991 O
atom 1.0000000000000000 2.5264780000000000 26.9630899999999976 H
atom 1.0000000000000000 1.0000000000000000 26.9630899999999976 H
atom 1.0000000000000000 1.7632390000000000 30.1557079999999971 O
atom 1.0000000000000000 2.5264780000000000 29.5593989999999991 H
atom 1.0000000000000000 1.0000000000000000 29.5593989999999991 H
atom 1.0000000000000000 1.7632390000000000 32.7520169999999951 O
atom 1.0000000000000000 2.5264780000000000 32.1557079999999971 H
atom 1.0000000000000000 1.0000000000000000 32.1557079999999971 H
atom 1.0000000000000000 1.7632390000000000 35.3483259999999930 O
atom 1.0000000000000000 2.5264780000000000 34.7520169999999951 H
atom 1.0000000000000000 1.0000000000000000 34.7520169999999951 H
atom 1.0000000000000000 1.7632390000000000 37.9446349999999981 O
atom 1.0000000000000000 2.5264780000000000 37.3483260000000001 H
atom 1.0000000000000000 1.0000000000000000 37.3483260000000001 H
atom 1.0000000000000000 1.7632390000000000 40.5409439999999961 O
atom 1.0000000000000000 2.5264780000000000 39.9446349999999981 H
atom 1.0000000000000000 1.0000000000000000 39.9446349999999981 H
atom 1.0000000000000000 1.7632390000000000 43.1372529999999941 O
atom 1.0000000000000000 2.5264780000000000 42.5409439999999961 H
atom 1.0000000000000000 1.0000000000000000 42.5409439999999961 H
atom 1.0000000000000000 1.7632390000000000 45.7335619999999921 O
atom 1.0000000000000000 2.5264780000000000 45.1372529999999941 H
atom 1.0000000000000000 1.0000000000000000 45.1372529999999941 H
atom 1.0000000000000000 1.7632390000000000 48.3298709999999900 O
atom 1.0000000000000000 2.5264780000000000 47.7335619999999921 H
atom 1.0000000000000000 1.0000000000000000 47.7335619999999921 H
atom 1.0000000000000000 1.7632390000000000 50.9261799999999951 O
atom 1.0000000000000000 2.5264780000000000 50.3298709999999971 H
atom 1.0000000000000000 1.0000000000000000 50.3298709999999971 H
atom 1.0000000000000000 5.2897169999999996 1.5963089999999998 O
atom 1.0000000000000000 6.0529560000000000 0.9999999999999998 H
atom 1.0000000000000000 4.5264780000000000 0.9999999999999998 H
atom 1.0000000000000000 5.2897169999999996 4.1926179999999995 O
atom 1.0000000000000000 6.0529560000000000 3.5963089999999998 H
atom 1.0000000000000000 4.5264780000000000 3.5963089999999998 H
atom 1.0000000000000000 5.2897169999999996 6.7889269999999993 O
atom 1.0000000000000000 6.0529560000000000 6.1926179999999995 H
atom 1.0000000000000000 4.5264780000000000 6.1926179999999995 H
atom 1.0000000000000000 5.2897169999999996 9.3852359999999990 O
atom 1.0000000000000000 6.0529560000000000 8.7889269999999993 H
atom 1.0000000000000000 4.5264780000000000 8.7889269999999993 H
atom 1.0000000000000000 5.2897169999999996 11.9815449999999988 O
atom 1.0000000000000000 6.0529560000000000 11.3852359999999990 H
atom 1.0000000000000000 4.5264780000000000 11.3852359999999990 H
atom 1.0000000000000000 5.2897169999999996 14.5778539999999985 O
atom 1.0000000000000000 6.0529560000000000 13.9815449999999988 H
atom 1.0000000000000000 4.5264780000000000 13.9815449999999988 H
atom 1.0000000000000000 5.2897169999999996 17.1741630000000001 O
atom 1.0000000000000000 6.0529560000000000 16.5778539999999985 H
atom 1.0000000000000000 4.5264780000000000 16.5778539999999985 H
atom 1.0000000000000000 5.2897169999999996 19.7704719999999980 O
atom 1.0000000000000000 6.0529560000000000 19.1741630000000001 H
atom 1.0000000000000000 4.5264780000000000 19.1741630000000001 H
atom 1.0000000000000000 5.2897169999999996 22.3667809999999960 O
atom 1.0000000000000000 6.0529560000000000 21.7704719999999980 H
atom 1.0000000000000000 4.5264780000000000 21.7704719999999980 H
atom 1.0000000000000000 5.2897169999999996 24.9630899999999940 O
atom 1.0000000000000000 6.0529560000000000 24.3667809999999960 H
atom 1.0000000000000000 4.5264780000000000 24.3667809999999960 H
atom 1.0000000000000000 5.2897169999999996 27.5593989999999991 O
atom 1.0000000000000000 6.0529560000000000 26.9630899999999976 H
atom 1.0000000000000000 4.5264780000000000 26.9630899999999976 H
atom 1.0000000000000000 5.2897169999999996 30.1557079999999971 O
atom 1.0000000000000000 6.0529560000000000 29.5593989999999991 H
atom 1.0000000000000000 4.5264780000000000 29.5593989999999991 H
atom 1.0000000000000000 5.2897169999999996 32.7520169999999951 O
atom 1.0000000000000000 6.0529560000000000 32.1557079999999971 H
atom 1.0000000000000000 4.5264780000000000 32.1557079999999971 H
atom 1.0000000000000000 5.2897169999999996 35.3483259999999930 O
atom 1.0000000000000000 6.0529560000000000 34.7520169999999951 H
atom 1.0000000000000000 4.5264780000000000 34.7520169999999951 H
atom 1.0000000000000000 5.2897169999999996 37.9446349999999981 O
atom 1.0000000000000000 6.0529560000000000 37.3483260000000001 H
atom 1.0000000000000000 4.5264780000000000 37.3483260000000001 H
atom 1.0000000000000000 5.2897169999999996 40.5409439999999961 O
atom 1.0000000000000000 6.0529560000000000 39.9446349999999981 H
atom 1.0000000000000000 4.5264780000000000 39.9446349999999981 H
atom 1.0000000000000000 5.2897169999999996 43.1372529999999941 O
atom 1.0000000000000000 6.0529560000000000 42.5409439999999961 H
atom 1.0000000000000000 4.5264780000000000 42.5409439999999961 H
atom 1.0000000000000000 5.2897169999999996 45.7335619999999921 O
atom 1.0000000000000000 6.0529560000000000 45.1372529999999941 H
atom 1.0000000000000000 4.5264780000000000 45.1372529999999941 H
atom 1.0000000000000000 5.2897169999999996 48.3298709999999900 O
atom 1.0000000000000000 6.0529560000000000 47.7335619999999921 H
atom 1.0000000000000000 4.5264780000000000 47.7335619999999921 H
atom 1.0000000000000000 5.2897169999999996 50.9261799999999951 O
atom 1.0000000000000000 6.0529560000000000 50.3298709999999971 H
atom 1.0000000000000000 4.5264780000000000 50.3298709999999971 H
atom 1.0000000000000000 8.8161950000000004 1.5963089999999998 O
atom 1.0000000000000000 9.5794339999999991 0.9999999999999998 H
atom 1.0000000000000000 8.0529560000000000 0.9999999999999998 H
atom 1.0000000000000000 8.8161950000000004 4.1926179999999995 O
atom 1.0000000000000000 9.5794339999999991 3.5963089999999998 H
atom 1.0000000000000000 8.0529560000000000 3.5963089999999998 H
atom 1.0000000000000000 8.8161950000000004 6.7889269999999993 O
atom 1.0000000000000000 9.5794339999999991 6.1926179999999995 H
atom 1.0000000000000000 8.0529560000000000 6.1926179999999995 H
atom 1.0000000000000000 8.8161950000000004 9.3852359999999990 O
atom 1.0000000000000000 9.5794339999999991 8.7889269999999993 H
atom 1.0000000000000000 8.0529560000000000 8.7889269999999993 H
atom 1.0000000000000000 8.8161950000000004 11.9815449999999988 O
atom 1.0000000000000000 9.5794339999999991 11.3852359999999990 H
atom 1.0000000000000000 8.0529560000000000 11.3852359999999990 H
atom 1.0000000000000000 8.8161950000000004 14.5778539999999985 O
atom 1.0000000000000000 9.5794339999999991 13.9815449999999988 H
atom 1.0000000000000000 8.0529560000000000 13.9815449999999988 H
atom 1.0000000000000000 8.8161950000000004 17.1741630000000001 O
atom 1.0000000000000000 9.5794339999999991 16.5778539999999985 H
atom 1.0000000000000000 8.0529560000000000 16.5778539999999985 H
atom 1.0000000000000000 8.8161950000000004 19.7704719999999980 O
atom 1.0000000000000000 9.5794339999999991 19.1741630000000001 H
atom 1.0000000000000000 8.0529560000000000 19.1741630000000001 H
atom 1.0000000000000000 8.8161950000000004 22.3667809999999960 O
atom 1.0000000000000000 9.5794339999999991 21.7704719999999980 H
atom 1.0000000000000000 8.0529560000000000 21.7704719999999980 H
atom 1.0000000000000000 8.8161950000000004 24.9630899999999940 O
atom 1.0000000000000000 9.5794339999999991 24.3667809999999960 H
atom 1.0000000000000000 8.0529560000000000 24.3667809999999960 H
atom 1.0000000000000000 8.8161950000000004 27.5593989999999991 O
atom 1.0000000000000000 9.5794339999999991 26.9630899999999976 H
atom 1.0000000000000000 8.0529560000000000 26.9630899999999976 H
atom 1.0000000000000000 8.8161950000000004 30.1557079999999971 O
atom 1.0000000000000000 9.5794339999999991 29.5593989999999991 H
atom 1.0000000000000000 8.0529560000000000 29.5593989999999991 H
atom 1.0000000000000000 8.8161950000000004 32.7520169999999951 O
atom 1.0000000000000000 9.5794339999999991 32.1557079999999971 H
atom 1.0000000000000000 8.0529560000000000 32.1557079999999971 H
atom 1.0000000000000000 8.8161950000000004 35.3483259999999930 O
atom 1.0000000000000000 9.5794339999999991 34.7520169999999951 H
atom 1.0000000000000000 8.0529560000000000 34.7520169999999951 H
atom 1.0000000000000000 8.8161950000000004 37.9446349999999981 O
atom 1.0000000000000000 9.5794339999999991 37.3483260000000001 H
atom 1.0000000000000000 8.0529560000000000 37.3483260000000001 H
atom 1.0000000000000000 8.8161950000000004 40.5409439999999961 O
atom 1.0000000000000000 9.5794339999999991 39.9446349999999981 H
atom 1.0000000000000000 8.0529560000000000 39.9446349999999981 H
atom 1.0000000000000000 8.8161950000000004 43.1372529999999941 O
atom 1.0000000000000000 9.5794339999999991 42.5409439999999961 H
atom 1.0000000000000000 8.0529560000000000 42.5409439999999961 H
atom 1.0000000000000000 8.8161950000000004 45.7335619999999921 O
atom 1.0000000000000000 9.5794339999999991 45.1372529999999941 H
atom 1.0000000000000000 8.0529560000000000 45.1372529999999941 H
atom 1.0000000000000000 8.8161950000000004 48.3298709999999900 O
atom 1.0000000000000000 9.5794339999999991 47.7335619999999921 H
atom 1.0000000000000000 8.0529560000000000 47.7335619999999921 H
atom 1.0000000000000000 8.8161950000000004 50.9261799999999951 O
atom 1.0000000000000000 9.5794339999999991 50.3298709999999971 H
atom 1.0000000000000000 8.0529560000000000 50.3298709999999971 H
atom 1.0000000000000000 12.3426729999999996 1.5963089999999998 O
atom 1.0000000000000000 13.1059120000000000 0.9999999999999998 H
atom 1.0000000000000000 11.5794339999999991 0.9999999999999998 H
atom 1.0000000000000000 12.3426729999999996 4.1926179999999995 O
atom 1.0000000000000000 13.1059120000000000 3.5963089999999998 H
atom 1.0000000000000000 11.5794339999999991 3.5963089999999998 H
atom 1.0000000000000000 12.3426729999999996 6.7889269999999993 O
atom 1.0000000000000000 13.1059120000000000 6.1926179999999995 H
atom 1.0000000000000000 11.5794339999999991 6.1926179999999995 H
atom 1.0000000000000000 12.3426729999999996 9.3852359999999990 O
atom 1.0000000000000000 13.1059120000000000 8.7889269999999993 H
atom 1.0000000000000000 11.5794339999999991 8.7889269999999993 H
atom 1.0000000000000000 12.3426729999999996 11.9815449999999988 O
atom 1.0000000000000000 13.1059120000000000 11.3852359999999990 H
atom 1.0000000000000000 11.5794339999999991 11.3852359999999990 H
atom 1.0000000000000000 12.3426729999999996 14.5778539999999985 O
atom 1.0000000000000000 13.1059120000000000 13.9815449999999988 H
atom 1.0000000000000000 11.5794339999999991 13.9815449999999988 H
atom 1.0000000000000000 12.3426729999999996 17.1741630000000001 O
atom 1.0000000000000000 13.1059120000000000 16.5778539999999985 H
atom 1.0000000000000000 11.5794339999999991 16.5778539999999985 H
atom 1.0000000000000000 12.3426729999999996 19.7704719999999980 O
atom 1.0000000000000000 13.1059120000000000 19.1741630000000001 H
atom 1.0000000000000000 11.5794339999999991 19.1741630000000001 H
atom 1.0000000000000000 12.3426729999999996 22.3667809999999960 O
atom 1.0000000000000000 13.1059120000000000 21.7704719999999980 H
atom 1.0000000000000000 11.5794339999999991 21.7704719999999980 H
atom 1.0000000000000000 12.3426729999999996 24.9630899999999940 O
atom 1.0000000000000000 13.1059120000000000 24.3667809999999960 H
atom 1.0000000000000000 11.5794339999999991 24.3667809999999960 H
atom 1.0000000000000000 12.3426729999999996 27.5593989999999991 O
atom 1.0000000000000000 13.1059120000000000 26.9630899999999976 H
atom 1.0000000000000000 11.5794339999999991 26.9630899999999976 H
atom 1.0000000000000000 12.3426729999999996 30.1557079999999971 O
atom 1.0000000000000000 13.1059120000000000 29.5593989999999991 H
atom 1.0000000000000000 11.5794339999999991 29.5593989999999991 H
atom 1.0000000000000000 12.3426729999999996 32.7520169999999951 O
atom 1.0000000000000000 13.1059120000000000 32.1557079999999971 H
atom 1.0000000000000000 11.5794339999999991 32.1557079999999971 H
atom 1.0000000000000000 12.3426729999999996 35.3483259999999930 O
atom 1.0000000000000000 13.1059120000000000 34.7520169999999951 H
atom 1.0000000000000000 11.5794339999999991 34.7520169999999951 H
atom 1.0000000000000000 12.3426729999999996 37.9446349999999981 O
atom 1.0000000000000000 13.1059120000000000 37.3483260000000001 H
atom 1.0000000000000000 11.5794339999999991 37.3483260000000001 H
atom 1.0000000000000000 12.3426729999999996 40.5409439999999961 O
atom 1.0000000000000000 13.1059120000000000 39.9446349999999981 H
atom 1.0000000000000000 11.5794339999999991 39.9446349999999981 H
atom 1.0000000000000000 12.3426729999999996 43.1372529999999941 O
atom 1.0000000000000000 13.1059120000000000 42.5409439999999961 H
atom 1.0000000000000000 11.5794339999999991 42.5409439999999961 H
atom 1.0000000000000000 12.3426729999999996 45.7335619999999921 O
atom 1.0000000000000000 13.1059120000000000 45.1372529999999941 H
atom 1.0000000000000000 11.5794339999999991 45.1372529999999941 H
atom 1.0000000000000000 12.3426729999999996 48.3298709999999900 O
atom 1.0000000000000000 13.1059120000000000 47.7335619999999921 H
atom 1.0000000000000000 11.5794339999999991 47.7335619999999921 H
atom 1.0000000000000000 12.3426729999999996 50.9261799999999951 O
atom 1.0000000000000000 13.1059120000000000 50.3298709999999971 H
atom 1.0000000000000000 11.5794339999999991 50.3298709999999971 H
atom 1.0000000000000000 15.8691510000000005 1.5963089999999998 O
atom 1.0000000000000000 16.6323900000000009 0.9999999999999998 H
atom 1.0000000000000000 15.1059120000000000 0.9999999999999998 H
atom 1.0000000000000000 15.8691510000000005 4.1926179999999995 O
atom 1.0000000000000000 16.6323900000000009 3.5963089999999998 H
atom 1.0000000000000000 15.1059120000000000 3.5963089999999998 H
atom 1.0000000000000000 15.8691510000000005 6.7889269999999993 O
atom 1.0000000000000000 16.6323900000000009 6.1926179999999995 H
atom 1.0000000000000000 15.1059120000000000 6.1926179999999995 H
atom 1.0000000000000000 15.8691510000000005 9.3852359999999990 O
atom 1.0000000000000000 16.6323900000000009 8.7889269999999993 H
atom 1.0000000000000000 15.1059120000000000 8.7889269999999993 H
atom 1.0000000000000000 15.8691510000000005 11.9815449999999988 O
atom 1.0000000000000000 16.6323900000000009 11.3852359999999990 H
atom 1.0000000000000000 15.1059120000000000 11.3852359999999990 H
atom 1.0000000000000000 15.8691510000000005 14.5778539999999985 O
atom 1.0000000000000000 16.6323900000000009 13.9815449999999988 H
atom 1.0000000000000000 15.1059120000000000 13.9815449999999988 H
atom 1.0000000000000000 15.8691510000000005 17.1741630000000001 O
atom 1.0000000000000000 16.6323900000000009 16.5778539999999985 H
atom 1.0000000000000000 15.1059120000000000 16.5778539999999985 H
atom 1.0000000000000000 15.8691510000000005 19.7704719999999980 O
atom 1.0000000000000000 16.6323900000000009 19.1741630000000001 H
atom 1.0000000000000000 15.1059120000000000 19.1741630000000001 H
atom 1.0000000000000000 15.8691510000000005 22.3667809999999960 O
atom 1.0000000000000000 16.6323900000000009 21.7704719999999980 H
atom 1.0000000000000000 15.1059120000000000 21.7704719999999980 H
atom 1.0000000000000000 15.8691510000000005 24.9630899999999940 O
atom 1.0000000000000000 16.6323900000000009 24.3667809999999960 H
atom 1.0000000000000000 15.1059120000000000 24.3667809999999960 H
atom 1.0000000000000000 15.8691510000000005 27.5593989999999991 O
atom 1.0000000000000000 16.6323900000000009 26.9630899999999976 H
atom 1.0000000000000000 15.1059120000000000 26.9630899999999976 H
atom 1.0000000000000000 15.8691510000000005 30.1557079999999971 O
atom 1.0000000000000000 16.6323900000000009 29.5593989999999991 H
atom 1.0000000000000000 15.1059120000000000 29.5593989999999991 H
atom 1.0000000000000000 15.8691510000000005 32.7520169999999951 O
atom 1.0000000000000000 16.6323900000000009 32.1557079999999971 H
atom 1.0000000000000000 15.1059120000000000 32.1557079999999971 H
atom 1.0000000000000000 15.8691510000000005 35.3483259999999930 O
atom 1.0000000000000000 16.6323900000000009 34.7520169999999951 H
atom 1.0000000000000000 15.1059120000000000 34.7520169999999951 H
atom 1.0000000000000000 15.8691510000000005 37.9446349999999981 O
atom 1.0000000000000000 16.6323900000000009 37.3483260000000001 H
atom 1.0000000000000000 15.1059120000000000 37.3483260000000001 H
atom 1.0000000000000000 15.8691510000000005 40.5409439999999961 O
atom 1.0000000000000000 16.6323900000000009 39.9446349999999981 H
atom 1.0000000000000000 15.1059120000000000 39.9446349999999981 H
atom 1.0000000000000000 15.8691510000000005 43.1372529999999941 O
atom 1.0000000000000000 16.6323900000000009 42.5409439999999961 H
atom 1.0000000000000000 15.1059120000000000 42.5409439999999961 H
atom 1.0000000000000000 15.8691510000000005 45.7335619999999921 O
atom 1.0000000000000000 16.6323900000000009 45.1372529999999941 H
atom 1.0000000000000000 15.1059120000000000 45.1372529999999941 H
atom 1.0000000000000000 15.8691510000000005 48.3298709999999900 O
atom 1.0000000000000000 16.6323900000000009 47.7335619999999921 H
atom 1.0000000000000000 15.1059120000000000 47.7335619999999921 H
atom 1.0000000000000000 15.8691510000000005 50.9261799999999951 O
atom 1.0000000000000000 16.6323900000000009 50.3298709999999971 H
atom 1.0000000000000000 15.1059120000000000 50.3298709999999971 H
atom 1.0000000000000000 19.3956289999999996 1.5963089999999998 O
atom 1.0000000000000000 20.1588680000000018 0.9999999999999998 H
atom 1.0000000000000000 18.6323900000000009 0.9999999999999998 H
atom 1.0000000000000000 19.3956289999999996 4.1926179999999995 O
atom 1.0000000000000000 20.1588680000000018 3.5963089999999998 H
atom 1.0000000000000000 18.6323900000000009 3.5963089999999998 H
atom 1.0000000000000000 19.3956289999999996 6.7889269999999993 O
atom 1.0000000000000000 20.1588680000000018 6.1926179999999995 H
atom 1.0000000000000000 18.6323900000000009 6.1926179999999995 H
atom 1.0000000000000000 19.3956289999999996 9.3852359999999990 O
atom 1.0000000000000000 20.1588680000000018 8.7889269999999993 H
atom 1.0000000000000000 18.6323900000000009 8.7889269999999993 H
atom 1.0000000000000000 19.3956289999999996 11.9815449999999988 O
atom 1.0000000000000000 20.1588680000000018 11.3852359999999990 H
atom 1.0000000000000000 18.6323900000000009 11.3852359999999990 H
atom 1.0000000000000000 19.3956289999999996 14.5778539999999985 O
atom 1.0000000000000000 20.1588680000000018 13.9815449999999988 H
atom 1.0000000000000000 18.6323900000000009 13.9815449999999988 H
atom 1.0000000000000000 19.3956289999999996 17.1741630000000001 O
atom 1.0000000000000000 20.1588680000000018 16.5778539999999985 H
atom 1.0000000000000000 18.6323900000000009 16.5778539999999985 H
atom 1.0000000000000000 19.3956289999999996 19.7704719999999980 O
atom 1.0000000000000000 20.1588680000000018 19.1741630000000001 H
atom 1.0000000000000000 18.6323900000000009 19.1741630000000001 H
atom 1.0000000000000000 19.3956289999999996 22.3667809999999960 O
atom 1.0000000000000000 20.1588680000000018 21.7704719999999980 H
atom 1.0000000000000000 18.6323900000000009 21.7704719999999980 H
atom 1.0000000000000000 19.3956289999999996 24.9630899999999940 O
atom 1.0000000000000000 20.1588680000000018 24.3667809999999960 H
atom 1.0000000000000000 18.6323900000000009 24.3667809999999960 H
atom 1.0000000000000000 19.3956289999999996 27.5593989999999991 O
atom 1.0000000000000000 20.1588680000000018 26.9630899999999976 H
atom 1.0000000000000000 18.6323900000000009 26.9630899999999976 H
atom 1.0000000000000000 19.3956289999999996 30.1557079999999971 O
atom 1.0000000000000000 20.1588680000000018 29.5593989999999991 H
atom 1.0000000000000000 18.6323900000000009 29.5593989999999991 H
atom 1.0000000000000000 19.3956289999999996 32.7520169999999951 O
atom 1.0000000000000000 20.1588680000000018 32.1557079999999971 H
atom 1.0000000000000000 18.6323900000000009 32.1557079999999971 H
atom 1.0000000000000000 19.3956289999999996 35.3483259999999930 O
atom 1.0000000000000000 20.1588680000000018 34.7520169999999951 H
atom 1.0000000000000000 18.6323900000000009 34.7520169999999951 H
atom 1.0000000000000000 19.3956289999999996 37.9446349999999981 O
atom 1.0000000000000000 20.1588680000000018 37.3483260000000001 H
atom 1.0000000000000000 18.6323900000000009 37.3483260000000001 H
atom 1.0000000000000000 19.3956289999999996 40.5409439999999961 O
atom 1.0000000000000000 20.1588680000000018 39.9446349999999981 H
atom 1.0000000000000000 18.6323900000000009 39.9446349999999981 H
atom 1.0000000000000000 19.3956289999999996 43.1372529999999941 O
atom 1.0000000000000000 20.1588680000000018 42.5409439999999961 H
atom 1.0000000000000000 18.6323900000000009 42.5409439999999961 H
atom 1.0000000000000000 19.3956289999999996 45.7335619999999921 O
atom 1.0000000000000000 20.1588680000000018 45.1372529999999941 H
atom 1.0000000000000000 18.6323900000000009 45.1372529999999941 H
atom 1.0000000000000000 19.3956289999999996 48.3298709999999900 O
atom 1.0000000000000000 20.1588680000000018 47.7335619999999921 H
atom 1.0000000000000000 18.6323900000000009 47.7335619999999921 H
atom 1.0000000000000000 19.3956289999999996 50.9261799999999951 O
atom 1.0000000000000000 20.1588680000000018 50.3298709999999971 H
atom 1.0000000000000000 18.6323900000000009 50.3298709999999971 H
atom 1.0000000000000000 22.9221069999999969 1.5963089999999998 O
atom 1.0000000000000000 23.6853459999999991 0.9999999999999998 H
atom 1.0000000000000000 22.1588679999999982 0.9999999999999998 H
atom 1.0000000000000000 22.9221069999999969 4.1926179999999995 O
atom 1.0000000000000000 23.6853459999999991 3.5963089999999998 H
atom 1.0000000000000000 22.1588679999999982 3.5963089999999998 H
atom 1.0000000000000000 22.9221069999999969 6.7889269999999993 O
atom 1.0000000000000000 23.6853459999999991 6.1926179999999995 H
atom 1.0000000000000000 22.1588679999999982 6.1926179999999995 H
atom 1.0000000000000000 22.9221069999999969 9.3852359999999990 O
atom 1.0000000000000000 23.6853459999999991 8.7889269999999993 H
atom 1.0000000000000000 22.1588679999999982 8.7889269999999993 H
atom 1.0000000000000000 22.9221069999999969 11.9815449999999988 O
atom 1.0000000000000000 23.6853459999999991 11.3852359999999990 H
atom 1.0000000000000000 22.1588679999999982 11.3852359999999990 H
atom 1.0000000000000000 22.9221069999999969 14.5778539999999985 O
atom 1.0000000000000000 23.6853459999999991 13.9815449999999988 H
atom 1.0000000000000000 22.1588679999999982 13.9815449999999988 H
atom 1.0000000000000000 22.9221069999999969 17.1741630000000001 O
atom 1.0000000000000000 23.6853459999999991 16.5778539999999985 H
atom 1.0000000000000000 22.1588679999999982 16.5778539999999985 H
atom 1.0000000000000000 22.9221069999999969 19.7704719999999980 O
atom 1.0000000000000000 23.6853459999999991 19.1741630000000001 H
atom 1.0000000000000000 22.1588679999999982 19.1741630000000001 H
atom 1.0000000000000000 22.9221069999999969 22.3667809999999960 O
atom 1.0000000000000000 23.6853459999999991 21.7704719999999980 H
atom 1.0000000000000000 22.1588679999999982 21.7704719999999980 H
atom 1.0000000000000000 22.9221069999999969 24.9630899999999940 O
atom 1.0000000000000000 23.6853459999999991 24.3667809999999960 H
atom 1.0000000000000000 22.1588679999999982 24.3667809999999960 H
atom 1.0000000000000000 22.9221069999999969 27.5593989999999991 O
atom 1.0000000000000000 23.6853459999999991 26.9630899999999976 H
atom 1.0000000000000000 22.1588679999999982 26.9630899999999976 H
atom 1.0000000000000000 22.9221069999999969 30.1557079999999971 O
atom 1.0000000000000000 23.6853459999999991 29.5593989999999991 H
atom 1.0000000000000000 22.1588679999999982 29.5593989999999991 H
atom 1.0000000000000000 22.9221069999999969 32.7520169999999951 O
atom 1.0000000000000000 23.6853459999999991 32.1557079999999971 H
atom 1.0000000000000000 22.1588679999999982 32.1557079999999971 H
atom 1.0000000000000000 22.9221069999999969 35.3483259999999930 O
atom 1.0000000000000000 23.6853459999999991 34.7520169999999951 H
atom 1.0000000000000000 22.1588679999999982 34.7520169999999951 H
atom 1.0000000000000000 22.9221069999999969 37.9446349999999981 O
atom 1.0000000000000000 23.6853459999999991 37.3483260000000001 H
atom 1.0000000000000000 22.1588679999999982 37.3483260000000001 H
atom 1.0000000000000000 22.9221069999999969 40.5409439999999961 O
atom 1.0000000000000000 23.6853459999999991 39.9446349999999981 H
atom 1.0000000000000000 22.1588679999999982 39.9446349999999981 H
atom 1.0000000000000000 22.9221069999999969 43.1372529999999941 O
atom 1.0000000000000000 23.6853459999999991 42.5409439999999961 H
atom 1.0000000000000000 22.1588679999999982 42.5409439999999961 H
atom 1.0000000000000000 22.9221069999999969 45.7335619999999921 O
atom 1.0000000000000000 23.6853459999999991 45.1372529999999941 H
atom 1.0000000000000000 22.1588679999999982 45.1372529999999941 H
atom 1.0000000000000000 22.9221069999999969 48.3298709999999900 O
atom 1.0000000000000000 23.6853459999999991 47.7335619999999921 H
atom 1.0000000000000000 22.1588679999999982 47.7335619999999921 H
atom 1.0000000000000000 22.9221069999999969 50.9261799999999951 O
atom 1.0000000000000000 23.6853459999999991 50.3298709999999971 H
atom 1.0000000000000000 22.1588679999999982 50.3298709999999971 H
atom 1.0000000000000000 26.4485849999999978 1.5963089999999998 O
atom 1.0000000000000000 27.2118240000000000 0.9999999999999998 H
atom 1.0000000000000000 25.6853459999999991 0.9999999999999998 H
atom 1.0000000000000000 26.4485849999999978 4.1926179999999995 O
atom 1.0000000000000000 27.2118240000000000 3.5963089999999998 H
atom 1.0000000000000000 25.6853459999999991 3.5963089999999998 H
atom 1.0000000000000000 26.4485849999999978 6.7889269999999993 O
atom 1.0000000000000000 27.2118240000000000 6.1926179999999995 H
atom 1.0000000000000000 25.6853459999999991 6.1926179999999995 H
atom 1.0000000000000000 26.4485849999999978 9.3852359999999990 O
atom 1.0000000000000000 27.2118240000000000 8.7889269999999993 H
atom 1.0000000000000000 25.6853459999999991 8.7889269999999993 H
atom 1.0000000000000000 26.4485849999999978 11.9815449999999988 O
atom 1.0000000000000000 27.2118240000000000 11.3852359999999990 H
atom 1.0000000000000000 25.6853459999999991 11.3852359999999990 H
atom 1.0000000000000000 26.4485849999999978 14.5778539999999985 O
atom 1.0000000000000000 27.2118240000000000 13.9815449999999988 H
atom 1.0000000000000000 25.6853459999999991 13.9815449999999988 H
atom 1.0000000000000000 26.4485849999999978 17.1741630000000001 O
atom 1.0000000000000000 27.2118240000000000 16.5778539999999985 H
atom 1.0000000000000000 25.6853459999999991 16.5778539999999985 H
atom 1.0000000000000000 26.4485849999999978 19.7704719999999980 O
atom 1.0000000000000000 27.2118240000000000 19.1741630000000001 H
atom 1.0000000000000000 25.6853459999999991 19.1741630000000001 H
atom 1.0000000000000000 26.4485849999999978 22.3667809999999960 O
atom 1.0000000000000000 27.2118240000000000 21.7704719999999980 H
atom 1.0000000000000000 25.6853459999999991 21.7704719999999980 H
atom 1.0000000000000000 26.4485849999999978 24.9630899999999940 O
atom 1.0000000000000000 27.2118240000000000 24.3667809999999960 H
atom 1.0000000000000000 25.6853459999999991 24.3667809999999960 H
atom 1.0000000000000000 26.4485849999999978 27.5593989999999991 O