#=======================================================
# FHI-aims file: datas/latino2-trans-p-pp-relax.in
# Created using the Atomic Simulation Environment (ASE)
# Tue Jul 28 21:30:39 2020
#=======================================================
lattice_vector 8.2418131629999998 -0.0009870230000000 -0.0396693050000000 
lattice_vector -0.0004261360000000 7.8135307070000000 0.0004449650000000 
lattice_vector 0.0473385490000000 0.0000086790000000 7.8134227809999999 
atom 8.2739557570400031 7.8130891172999997 -0.0399571243549990 La
atom 4.1767164829400016 7.8125918034000001 3.8865517545450001 La
atom 0.0709663092400001 3.9074085104999998 7.8014287098450001 La
atom 4.1681944806400013 3.9079055680999999 3.8748672459450004 La
atom 0.0451096938400024 3.9040771359000002 3.9100221928450001 La
atom 4.1896840174400003 3.9045659144000000 7.7969329518450001 La
atom 4.1477989975400025 7.8125168061999997 -0.0340883016549993 La
atom 8.2923675503400016 7.8130086900000002 3.8527746460450008 La
atom 6.3308935302400009 5.8580557358999998 5.8309148528450008 Ti
atom 2.1862536494400020 5.8575694802999996 1.9440394923450002 Ti
atom 2.2111441647400012 1.9500313777000000 5.8482015548449997 Ti
atom 6.3083740559400017 1.9505306899999999 1.9216551697450008 Ti
atom 2.1871813693400020 1.9545960295000000 1.9437822803450000 Ti
atom 6.3317646970400006 1.9550873550000001 5.8306602983450002 Ti
atom 2.2101731612400020 5.8614532772999999 5.8475910176449997 Ti
atom 6.3073464711400025 5.8619473765999999 1.9210453322450010 Ti
atom 2.0746955962400015 -0.0007302988000002 2.4380159229450005 O
atom 6.2192721380400009 -0.0002480492000001 6.3248777458450007 O
atom 1.9988378093400017 3.9064966628000000 1.4577080328450003 O
atom 6.1433781536400014 3.9069885331999998 5.3446096891450008 O
atom 2.1001669338400011 3.9064274541000001 6.3441299888449993 O
atom 6.1974046328400014 3.9069216057000000 2.4176007376450004 O
atom 2.0187082379400012 -0.0009061953999998 5.3666850278450005 O
atom 6.1159798954400015 -0.0004021066000002 1.4401156310450012 O
atom 2.0394826409400024 6.3507661800999999 -0.0085832675549997 O
atom 6.1840610508400022 6.3512566410000000 3.8782767787450005 O
atom 2.0414667045400012 2.4424900138000001 3.8982099417449998 O
atom 6.1860426400400010 2.4429782843000001 7.7851101065450008 O
atom -0.0342198191599987 1.9937376857000000 5.8678960827450002 N
atom 4.0630355084400014 1.9942216961000001 1.9413529575449999 N
atom 4.0863422739400015 5.9007398926999999 5.8274453703450000 N
atom 8.1835461059400014 5.9012213483000000 1.9009018872450008 N
atom 2.0323789708400017 5.3698979373000002 3.8984651522450000 O
atom 6.1769540496400008 5.3703910260000001 7.7853573346450009 O
atom 2.0321526263400016 1.4633654089000001 -0.0085526135550000 O
atom 6.1767272714400017 1.4638511136000001 3.8783036094450010 O
atom 4.0869762084400012 1.9106129209000000 5.8361055501450005 N
atom 8.1842323056400019 1.9111250164000000 1.9095601203450010 N
atom -0.0347093926599982 5.8174597948000004 5.8771402108449999 N
atom 4.0624935221400014 5.8179758468999996 1.9505990098449999 N
