#=======================================================
# FHI-aims file: datas/perovskite-10-10-10.in
# Created using the Atomic Simulation Environment (ASE)
# Thu Sep 17 16:33:41 2020
#=======================================================
lattice_vector 62.9012000000000029 0.0000000000000000 0.0000000000000000 
lattice_vector 0.0007774502655757 62.7388999951829760 0.0000000000000000 
lattice_vector -0.3966741764956396 -0.0015337416137689 62.9691505691901270 
atom 5.6391502400000002 6.2735050499999998 6.2738368600000003 C
atom 0.8582143500000000 6.2728007999999997 0.1566546500000000 N
atom 5.4051820099999999 6.2719627500000001 5.1995831499999996 H
atom 5.2669827700000003 0.9019045700000000 0.4529245100000000 H
atom 5.2657306600000000 5.3736760700000001 0.4557896000000000 H
atom 1.2677571700000001 0.8422733500000000 6.0332884099999999 H
atom 1.2665730100000001 5.4271630999999996 6.0355741900000002 H
atom 1.1375311400000001 -0.0000096100000000 1.1671521000000000 H
atom 2.9763439200000001 3.1370665400000002 2.9951087599999999 Pb
atom 2.6461000600000002 3.1360617799999999 6.1244362600000004 I
atom 2.7215184899999998 0.0002046300000000 3.1896519500000000 I
atom 6.0390218899999999 3.1383005000000002 2.8194248300000000 I
atom 5.5994828223504358 6.2733516758386232 12.5707519169190132 C
atom 0.8185469323504361 6.2726474258386231 6.4535697069190130 N
atom 5.3655145923504355 6.2718093758386235 11.4964982069190125 H
atom 5.2273153523504359 0.9017511958386232 6.7498395669190128 H
atom 5.2260632423504356 5.3735226958386235 6.7527046569190130 H
atom 1.2280897523504362 0.8421199758386232 12.3302034669190128 H
atom 1.2269055923504362 5.4270097258386230 12.3324892469190139 H
atom 1.0978637223504362 -0.0001629841613769 7.4640671569190129 H
atom 2.9366765023504362 3.1369131658386231 9.2920238169190128 Pb
atom 2.6064326423504363 3.1359084058386228 12.4213513169190133 I
atom 2.6818510723504358 0.0000512558386231 9.4865670069190138 I
atom 5.9993544723504355 3.1381471258386231 9.1163398869190129 I
atom 5.5598154047008723 6.2731983016772457 18.8676669738380269 C
atom 0.7788795147008721 6.2724940516772456 12.7504847638380259 N
atom 5.3258471747008720 6.2716560016772460 17.7934132638380262 H
atom 5.1876479347008724 0.9015978216772462 13.0467546238380265 H
atom 5.1863958247008721 5.3733693216772460 13.0496197138380250 H
atom 1.1884223347008722 0.8419666016772462 18.6271185238380248 H
atom 1.1872381747008722 5.4268563516772454 18.6294043038380259 H
atom 1.0581963047008722 -0.0003163583227538 13.7609822138380267 H
atom 2.8970090847008723 3.1367597916772465 15.5889388738380248 Pb
atom 2.5667652247008723 3.1357550316772462 18.7182663738380271 I
atom 2.6421836547008719 -0.0001021183227538 15.7834820638380258 I
atom 5.9596870547008720 3.1379937516772465 15.4132549438380266 I
atom 5.5201479870513079 6.2730449275158691 25.1645820307570389 C
atom 0.7392120970513081 6.2723406775158690 19.0473998207570396 N
atom 5.2861797570513076 6.2715026275158694 24.0903283207570382 H
atom 5.1479805170513080 0.9014444475158694 19.3436696807570385 H
atom 5.1467284070513077 5.3732159475158694 19.3465347707570388 H
atom 1.1487549170513083 0.8418132275158694 24.9240335807570403 H
atom 1.1475707570513083 5.4267029775158688 24.9263193607570415 H
atom 1.0185288870513083 -0.0004697324841307 20.0578972707570387 H
atom 2.8573416670513083 3.1366064175158694 21.8858539307570403 Pb
atom 2.5270978070513084 3.1356016575158692 25.0151814307570390 I
atom 2.6025162370513080 -0.0002554924841307 22.0803971207570413 I
atom 5.9200196370513076 3.1378403775158694 21.7101700007570386 I
atom 5.4804805694017444 6.2728915533544924 31.4614970876760509 C
atom 0.6995446794017441 6.2721873033544924 25.3443148776760516 N
atom 5.2465123394017441 6.2713492533544928 30.3872433776760502 H
atom 5.1083130994017445 0.9012910733544924 25.6405847376760505 H
atom 5.1070609894017442 5.3730625733544928 25.6434498276760507 H
atom 1.1090874994017443 0.8416598533544924 31.2209486376760523 H
atom 1.1079033394017443 5.4265496033544922 31.2232344176760535 H
atom 0.9788614694017442 -0.0006231066455075 26.3548123276760506 H
atom 2.8176742494017444 3.1364530433544928 28.1827689876760523 Pb
atom 2.4874303894017444 3.1354482833544925 31.3120964876760510 I
atom 2.5628488194017440 -0.0004088666455075 28.3773121776760533 I
atom 5.8803522194017441 3.1376870033544928 28.0070850576760506 I
atom 5.4408131517521801 6.2727381791931149 37.7584121445950629 C
atom 0.6598772617521802 6.2720339291931149 31.6412299345950636 N
atom 5.2068449217521797 6.2711958791931153 36.6841584345950622 H
atom 5.0686456817521801 0.9011376991931156 31.9374997945950625 H
atom 5.0673935717521799 5.3729091991931153 31.9403648845950627 H
atom 1.0694200817521802 0.8415064791931156 37.5178636945950643 H
atom 1.0682359217521804 5.4263962291931147 37.5201494745950654 H
atom 0.9391940517521803 -0.0007764808068844 32.6517273845950626 H
atom 2.7780068317521804 3.1362996691931158 34.4796840445950608 Pb
atom 2.4477629717521805 3.1352949091931155 37.6090115445950630 I
atom 2.5231814017521801 -0.0005622408068844 34.6742272345950653 I
atom 5.8406848017521797 3.1375336291931157 34.3040001145950626 I
atom 5.4011457341026166 6.2725848050317383 44.0553272015140820 C
atom 0.6202098441026163 6.2718805550317382 37.9381449915140792 N
atom 5.1671775041026162 6.2710425050317387 42.9810734915140813 H
atom 5.0289782641026166 0.9009843250317388 38.2344148515140816 H
atom 5.0277261541026164 5.3727558250317387 38.2372799415140818 H
atom 1.0297526641026162 0.8413531050317388 43.8147787515140763 H
atom 1.0285685041026165 5.4262428550317381 43.8170645315140774 H
atom 0.8995266341026164 -0.0009298549682613 38.9486424415140817 H
atom 2.7383394141026165 3.1361462950317387 40.7765991015140798 Pb
atom 2.4080955541026166 3.1351415350317384 43.9059266015140821 I
atom 2.4835139841026161 -0.0007156149682613 40.9711422915140773 I
atom 5.8010173841026162 3.1373802550317387 40.6009151715140817 I
atom 5.3614783164530522 6.2724314308703617 50.3522422584330940 C
atom 0.5805424264530523 6.2717271808703616 44.2350600484330911 N
atom 5.1275100864530518 6.2708891308703620 49.2779885484330933 H
atom 4.9893108464530522 0.9008309508703618 44.5313299084330936 H
atom 4.9880587364530520 5.3726024508703620 44.5341949984330938 H
atom 0.9900852464530523 0.8411997308703618 50.1116938084330883 H
atom 0.9889010864530523 5.4260894808703615 50.1139795884330894 H
atom 0.8598592164530523 -0.0010832291296382 45.2455574984330937 H
atom 2.6986719964530526 3.1359929208703621 47.0735141584330918 Pb
atom 2.3684281364530526 3.1349881608703618 50.2028416584330941 I
atom 2.4438465664530522 -0.0008689891296382 47.2680573484330893 I
atom 5.7613499664530519 3.1372268808703621 46.8978302284330937 I
atom 5.3218108988034887 6.2722780567089851 56.6491573153521060 C
atom 0.5408750088034884 6.2715738067089850 50.5319751053521031 N
atom 5.0878426688034883 6.2707357567089854 55.5749036053521053 H
atom 4.9496434288034887 0.9006775767089850 50.8282449653521056 H
atom 4.9483913188034885 5.3724490767089854 50.8311100553521058 H
atom 0.9504178288034884 0.8410463567089850 56.4086088653521003 H
atom 0.9492336688034884 5.4259361067089849 56.4108946453521014 H
atom 0.8201917988034884 -0.0012366032910151 51.5424725553521057 H
atom 2.6590045788034886 3.1358395467089850 53.3704292153521038 Pb
atom 2.3287607188034887 3.1348347867089847 56.4997567153521061 I
atom 2.4041791488034883 -0.0010223632910151 53.5649724053521012 I
atom 5.7216825488034884 3.1370735067089850 53.1947452853521057 I
atom 5.2821434811539243 6.2721246825476076 62.9460723722711180 C
atom 0.5012075911539244 6.2714204325476075 56.8288901622711151 N
atom 5.0481752511539240 6.2705823825476079 61.8718186622711173 H
atom 4.9099760111539243 0.9005242025476080 57.1251600222711176 H
atom 4.9087239011539241 5.3722957025476079 57.1280251122711178 H
atom 0.9107504111539244 0.8408929825476080 62.7055239222711123 H
atom 0.9095662511539244 5.4257827325476073 62.7078097022711134 H
atom 0.7805243811539244 -0.0013899774523920 57.8393876122711177 H
atom 2.6193371611539247 3.1356861725476084 59.6673442722711158 Pb
atom 2.2890933011539247 3.1346814125476081 62.7966717722711181 I
atom 2.3645117311539243 -0.0011757374523920 59.8618874622711132 I
atom 5.6820151311539240 3.1369201325476084 59.4916603422711177 I
atom 5.6392279850265581 12.5473950495182969 6.2738368600000003 C
atom 0.8582920950265576 12.5466907995182986 0.1566546500000000 N
atom 5.4052597550265578 12.5458527495182981 5.1995831499999996 H
atom 5.2670605150265581 7.1757945695182981 0.4529245100000000 H
atom 5.2658084050265579 11.6475660695182981 0.4557896000000000 H
atom 1.2678349150265578 7.1161633495182981 6.0332884099999999 H
atom 1.2666507550265578 11.7010530995182975 6.0355741900000002 H
atom 1.1376088850265578 6.2738803895182977 1.1671521000000000 H
atom 2.9764216650265576 9.4109565395182990 2.9951087599999999 Pb
atom 2.6461778050265576 9.4099517795182983 6.1244362600000004 I
atom 2.7215962350265572 6.2740946295182978 3.1896519500000000 I
atom 6.0390996350265578 9.4121904995182977 2.8194248300000000 I
atom 5.5995605673769937 12.5472416753569220 12.5707519169190132 C
atom 0.8186246773769936 12.5465374253569202 6.4535697069190130 N
atom 5.3655923373769934 12.5456993753569215 11.4964982069190125 H
atom 5.2273930973769938 7.1756411953569215 6.7498395669190128 H
atom 5.2261409873769935 11.6474126953569215 6.7527046569190130 H
atom 1.2281674973769938 7.1160099753569215 12.3302034669190128 H
atom 1.2269833373769936 11.7008997253569209 12.3324892469190139 H
atom 1.0979414673769936 6.2737270153569211 7.4640671569190129 H
atom 2.9367542473769936 9.4108031653569206 9.2920238169190128 Pb
atom 2.6065103873769937 9.4097984053569217 12.4213513169190133 I
atom 2.6819288173769933 6.2739412553569212 9.4865670069190138 I
atom 5.9994322173769934 9.4120371253569211 9.1163398869190129 I
atom 5.5598931497274302 12.5470883011955436 18.8676669738380269 C
atom 0.7789572597274297 12.5463840511955436 12.7504847638380259 N
atom 5.3259249197274299 12.5455460011955431 17.7934132638380262 H
atom 5.1877256797274303 7.1754878211955440 13.0467546238380265 H
atom 5.1864735697274300 11.6472593211955449 13.0496197138380250 H
atom 1.1885000797274297 7.1158566011955440 18.6271185238380248 H
atom 1.1873159197274297 11.7007463511955443 18.6294043038380259 H
atom 1.0582740497274297 6.2735736411955436 13.7609822138380267 H
atom 2.8970868297274297 9.4106497911955440 15.5889388738380248 Pb
atom 2.5668429697274298 9.4096450311955433 18.7182663738380271 I
atom 2.6422613997274293 6.2737878811955436 15.7834820638380258 I
atom 5.9597647997274299 9.4118837511955444 15.4132549438380266 I
atom 5.5202257320778658 12.5469349270341670 25.1645820307570389 C
atom 0.7392898420778657 12.5462306770341669 19.0473998207570396 N
atom 5.2862575020778655 12.5453926270341682 24.0903283207570382 H
atom 5.1480582620778659 7.1753344470341673 19.3436696807570385 H
atom 5.1468061520778656 11.6471059470341665 19.3465347707570388 H
atom 1.1488326620778657 7.1157032270341674 24.9240335807570403 H
atom 1.1476485020778657 11.7005929770341659 24.9263193607570415 H
atom 1.0186066320778657 6.2734202670341670 20.0578972707570387 H
atom 2.8574194120778658 9.4104964170341674 21.8858539307570403 Pb
atom 2.5271755520778658 9.4094916570341667 25.0151814307570390 I
atom 2.6025939820778654 6.2736345070341670 22.0803971207570413 I
atom 5.9200973820778655 9.4117303770341678 21.7101700007570386 I
atom 5.4805583144283023 12.5467815528727904 31.4614970876760509 C
atom 0.6996224244283018 12.5460773028727903 25.3443148776760516 N
atom 5.2465900844283020 12.5452392528727898 30.3872433776760502 H
atom 5.1083908444283024 7.1751810728727907 25.6405847376760505 H
atom 5.1071387344283021 11.6469525728727916 25.6434498276760507 H
atom 1.1091652444283018 7.1155498528727907 31.2209486376760523 H
atom 1.1079810844283018 11.7004396028727911 31.2232344176760535 H
atom 0.9789392144283018 6.2732668928727904 26.3548123276760506 H
atom 2.8177519944283018 9.4103430428727908 28.1827689876760523 Pb
atom 2.4875081344283019 9.4093382828727901 31.3120964876760510 I
atom 2.5629265644283015 6.2734811328727904 28.3773121776760533 I
atom 5.8804299644283020 9.4115770028727912 28.0070850576760506 I
atom 5.4408908967787379 12.5466281787114120 37.7584121445950629 C
atom 0.6599550067787378 12.5459239287114137 31.6412299345950636 N
atom 5.2069226667787376 12.5450858787114132 36.6841584345950622 H
atom 5.0687234267787380 7.1750276987114132 31.9374997945950625 H
atom 5.0674713167787377 11.6467991987114132 31.9403648845950627 H
atom 1.0694978267787378 7.1153964787114132 37.5178636945950643 H
atom 1.0683136667787378 11.7002862287114127 37.5201494745950654 H
atom 0.9392717967787378 6.2731135187114129 32.6517273845950626 H
atom 2.7780845767787379 9.4101896687114142 34.4796840445950608 Pb
atom 2.4478407167787379 9.4091849087114134 37.6090115445950630 I
atom 2.5232591467787375 6.2733277587114129 34.6742272345950653 I
atom 5.8407625467787376 9.4114236287114128 34.3040001145950626 I
atom 5.4012234791291744 12.5464748045500372 44.0553272015140820 C
atom 0.6202875891291738 12.5457705545500353 37.9381449915140792 N
atom 5.1672552491291741 12.5449325045500366 42.9810734915140813 H
atom 5.0290560091291745 7.1748743245500366 38.2344148515140816 H
atom 5.0278038991291742 11.6466458245500366 38.2372799415140818 H
atom 1.0298304091291739 7.1152431045500366 43.8147787515140763 H
atom 1.0286462491291739 11.7001328545500360 43.8170645315140774 H
atom 0.8996043791291739 6.2729601445500363 38.9486424415140817 H
atom 2.7384171591291739 9.4100362945500358 40.7765991015140798 Pb
atom 2.4081732991291740 9.4090315345500368 43.9059266015140821 I
atom 2.4835917291291736 6.2731743845500363 40.9711422915140773 I
atom 5.8010951291291741 9.4112702545500362 40.6009151715140817 I
atom 5.3615560614796101 12.5463214303886588 50.3522422584330940 C
atom 0.5806201714796098 12.5456171803886605 44.2350600484330911 N
atom 5.1275878314796097 12.5447791303886600 49.2779885484330933 H
atom 4.9893885914796101 7.1747209503886600 44.5313299084330936 H
atom 4.9881364814796099 11.6464924503886600 44.5341949984330938 H
atom 0.9901629914796100 7.1150897303886600 50.1116938084330883 H
atom 0.9889788314796100 11.6999794803886594 50.1139795884330894 H
atom 0.8599369614796100 6.2728067703886596 45.2455574984330937 H
atom 2.6987497414796100 9.4098829203886609 47.0735141584330918 Pb
atom 2.3685058814796101 9.4088781603886602 50.2028416584330941 I
atom 2.4439243114796096 6.2730210103886597 47.2680573484330893 I
atom 5.7614277114796097 9.4111168803886596 46.8978302284330937 I
atom 5.3218886438300457 12.5461680562272839 56.6491573153521060 C
atom 0.5409527538300458 12.5454638062272821 50.5319751053521031 N
atom 5.0879204138300453 12.5446257562272834 55.5749036053521053 H
atom 4.9497211738300457 7.1745675762272834 50.8282449653521056 H
atom 4.9484690638300455 11.6463390762272834 50.8311100553521058 H
atom 0.9504955738300460 7.1149363562272834 56.4086088653521003 H
atom 0.9493114138300460 11.6998261062272828 56.4108946453521014 H
atom 0.8202695438300460 6.2726533962272830 51.5424725553521057 H
atom 2.6590823238300461 9.4097295462272825 53.3704292153521038 Pb
atom 2.3288384638300461 9.4087247862272836 56.4997567153521061 I
atom 2.4042568938300457 6.2728676362272831 53.5649724053521012 I
atom 5.7217602938300454 9.4109635062272829 53.1947452853521057 I
atom 5.2822212261804822 12.5460146820659055 62.9460723722711180 C
atom 0.5012853361804819 12.5453104320659055 56.8288901622711151 N
atom 5.0482529961804818 12.5444723820659050 61.8718186622711173 H
atom 4.9100537561804822 7.1744142020659059 57.1251600222711176 H
atom 4.9088016461804820 11.6461857020659068 57.1280251122711178 H
atom 0.9108281561804821 7.1147829820659059 62.7055239222711123 H
atom 0.9096439961804821 11.6996727320659062 62.7078097022711134 H
atom 0.7806021261804821 6.2725000220659055 57.8393876122711177 H
atom 2.6194149061804821 9.4095761720659059 59.6673442722711158 Pb
atom 2.2891710461804822 9.4085714120659052 62.7966717722711181 I
atom 2.3645894761804818 6.2727142620659055 59.8618874622711132 I
atom 5.6820928761804819 9.4108101320659063 59.4916603422711177 I
atom 5.6393057300531151 18.8212850490365966 6.2738368600000003 C
atom 0.8583698400531151 18.8205807990365948 0.1566546500000000 N
atom 5.4053375000531148 18.8197427490365961 5.1995831499999996 H
atom 5.2671382600531151 13.4496845690365951 0.4529245100000000 H
atom 5.2658861500531149 17.9214560690365943 0.4557896000000000 H
atom 1.2679126600531152 13.3900533490365952 6.0332884099999999 H
atom 1.2667285000531152 17.9749430990365937 6.0355741900000002 H
atom 1.1376866300531152 12.5477703890365966 1.1671521000000000 H
atom 2.9764994100531155 15.6848465390365952 2.9951087599999999 Pb
atom 2.6462555500531155 15.6838417790365963 6.1244362600000004 I
atom 2.7216739800531151 12.5479846290365966 3.1896519500000000 I
atom 6.0391773800531148 15.6860804990365956 2.8194248300000000 I
atom 5.5996383124035516 18.8211316748752182 12.5707519169190132 C
atom 0.8187024224035512 18.8204274248752199 6.4535697069190130 N
atom 5.3656700824035513 18.8195893748752212 11.4964982069190125 H
atom 5.2274708424035516 13.4495311948752185 6.7498395669190128 H
atom 5.2262187324035514 17.9213026948752194 6.7527046569190130 H
atom 1.2282452424035513 13.3898999748752185 12.3302034669190128 H
atom 1.2270610824035513 17.9747897248752189 12.3324892469190139 H
atom 1.0980192124035513 12.5476170148752200 7.4640671569190129 H
atom 2.9368319924035515 15.6846931648752204 9.2920238169190128 Pb
atom 2.6065881324035516 15.6836884048752196 12.4213513169190133 I
atom 2.6820065624035512 12.5478312548752200 9.4865670069190138 I
atom 5.9995099624035513 15.6859271248752190 9.1163398869190129 I
atom 5.5599708947539872 18.8209783007138434 18.8676669738380269 C
atom 0.7790350047539872 18.8202740507138415 12.7504847638380259 N
atom 5.3260026647539869 18.8194360007138428 17.7934132638380262 H
atom 5.1878034247539873 13.4493778207138419 13.0467546238380265 H
atom 5.1865513147539870 17.9211493207138446 13.0496197138380250 H
atom 1.1885778247539873 13.3897466007138419 18.6271185238380248 H
atom 1.1873936647539873 17.9746363507138440 18.6294043038380259 H
atom 1.0583517947539873 12.5474636407138433 13.7609822138380267 H
atom 2.8971645747539876 15.6845397907138420 15.5889388738380248 Pb
atom 2.5669207147539872 15.6835350307138430 18.7182663738380271 I
atom 2.6423391447539872 12.5476778807138434 15.7834820638380258 I
atom 5.9598425447539869 15.6857737507138424 15.4132549438380266 I
atom 5.5203034771044237 18.8208249265524650 25.1645820307570389 C
atom 0.7393675871044233 18.8201206765524667 19.0473998207570396 N
atom 5.2863352471044234 18.8192826265524644 24.0903283207570382 H
atom 5.1481360071044238 13.4492244465524653 19.3436696807570385 H
atom 5.1468838971044235 17.9209959465524662 19.3465347707570388 H
atom 1.1489104071044234 13.3895932265524653 24.9240335807570403 H
atom 1.1477262471044234 17.9744829765524656 24.9263193607570415 H
atom 1.0186843771044234 12.5473102665524667 20.0578972707570387 H
atom 2.8574971571044232 15.6843864165524671 21.8858539307570403 Pb
atom 2.5272532971044233 15.6833816565524664 25.0151814307570390 I
atom 2.6026717271044228 12.5475245065524668 22.0803971207570413 I
atom 5.9201751271044234 15.6856203765524658 21.7101700007570386 I
atom 5.4806360594548593 18.8206715523910866 31.4614970876760509 C
atom 0.6997001694548592 18.8199673023910883 25.3443148776760516 N
atom 5.2466678294548590 18.8191292523910860 30.3872433776760502 H
atom 5.1084685894548594 13.4490710723910869 25.6405847376760505 H
atom 5.1072164794548591 17.9208425723910878 25.6434498276760507 H
atom 1.1092429894548594 13.3894398523910869 31.2209486376760523 H
atom 1.1080588294548595 17.9743296023910872 31.2232344176760535 H
atom 0.9790169594548594 12.5471568923910883 26.3548123276760506 H
atom 2.8178297394548593 15.6842330423910887 28.1827689876760523 Pb
atom 2.4875858794548593 15.6832282823910880 31.3120964876760510 I
atom 2.5630043094548589 12.5473711323910884 28.3773121776760533 I
atom 5.8805077094548590 15.6854670023910874 28.0070850576760506 I
atom 5.4409686418052958 18.8205181782297117 37.7584121445950629 C
atom 0.6600327518052953 18.8198139282297099 31.6412299345950636 N
atom 5.2070004118052955 18.8189758782297112 36.6841584345950622 H
atom 5.0688011718052959 13.4489176982297103 31.9374997945950625 H
atom 5.0675490618052956 17.9206891982297094 31.9403648845950627 H
atom 1.0695755718052955 13.3892864782297103 37.5178636945950643 H
atom 1.0683914118052955 17.9741762282297088 37.5201494745950654 H
atom 0.9393495418052954 12.5470035182297117 32.6517273845950626 H
atom 2.7781623218052953 15.6840796682297103 34.4796840445950608 Pb
atom 2.4479184618052954 15.6830749082297114 37.6090115445950630 I
atom 2.5233368918052950 12.5472177582297117 34.6742272345950653 I
atom 5.8408402918052955 15.6853136282297108 34.3040001145950626 I
atom 5.4013012241557314 18.8203648040683333 44.0553272015140820 C
atom 0.6203653341557314 18.8196605540683350 37.9381449915140792 N
atom 5.1673329941557311 18.8188225040683363 42.9810734915140813 H
atom 5.0291337541557315 13.4487643240683337 38.2344148515140816 H
atom 5.0278816441557312 17.9205358240683346 38.2372799415140818 H
atom 1.0299081541557316 13.3891331040683337 43.8147787515140763 H
atom 1.0287239941557316 17.9740228540683340 43.8170645315140774 H
atom 0.8996821241557315 12.5468501440683351 38.9486424415140817 H
atom 2.7384949041557314 15.6839262940683355 40.7765991015140798 Pb
atom 2.4082510441557314 15.6829215340683348 43.9059266015140821 I
atom 2.4836694741557310 12.5470643840683351 40.9711422915140773 I
atom 5.8011728741557311 15.6851602540683341 40.6009151715140817 I
atom 5.3616338065061679 18.8202114299069585 50.3522422584330940 C
atom 0.5806979165061674 18.8195071799069567 44.2350600484330911 N
atom 5.1276655765061676 18.8186691299069579 49.2779885484330933 H
atom 4.9894663365061680 13.4486109499069570 44.5313299084330936 H
atom 4.9882142265061677 17.9203824499069597 44.5341949984330938 H
atom 0.9902407365061675 13.3889797299069571 50.1116938084330883 H
atom 0.9890565765061675 17.9738694799069592 50.1139795884330894 H
atom 0.8600147065061675 12.5466967699069585 45.2455574984330937 H
atom 2.6988274865061674 15.6837729199069571 47.0735141584330918 Pb
atom 2.3685836265061675 15.6827681599069582 50.2028416584330941 I
atom 2.4440020565061671 12.5469110099069585 47.2680573484330893 I
atom 5.7615054565061676 15.6850068799069575 46.8978302284330937 I
atom 5.3219663888566036 18.8200580557455801 56.6491573153521060 C
atom 0.5410304988566035 18.8193538057455818 50.5319751053521031 N
atom 5.0879981588566032 18.8185157557455796 55.5749036053521053 H
atom 4.9497989188566036 13.4484575757455804 50.8282449653521056 H
atom 4.9485468088566034 17.9202290757455813 50.8311100553521058 H
atom 0.9505733188566036 13.3888263557455804 56.4086088653521003 H
atom 0.9493891588566036 17.9737161057455808 56.4108946453521014 H
atom 0.8203472888566036 12.5465433957455819 51.5424725553521057 H
atom 2.6591600688566035 15.6836195457455823 53.3704292153521038 Pb
atom 2.3289162088566036 15.6826147857455815 56.4997567153521061 I
atom 2.4043346388566031 12.5467576357455819 53.5649724053521012 I
atom 5.7218380388566032 15.6848535057455809 53.1947452853521057 I
atom 5.2822989712070401 18.8199046815842053 62.9460723722711180 C
atom 0.5013630812070395 18.8192004315842034 56.8288901622711151 N
atom 5.0483307412070397 18.8183623815842047 61.8718186622711173 H
atom 4.9101315012070401 13.4483042015842038 57.1251600222711176 H
atom 4.9088793912070399 17.9200757015842029 57.1280251122711178 H
atom 0.9109059012070396 13.3886729815842038 62.7055239222711123 H
atom 0.9097217412070396 17.9735627315842024 62.7078097022711134 H
atom 0.7806798712070396 12.5463900215842052 57.8393876122711177 H
atom 2.6194926512070396 15.6834661715842039 59.6673442722711158 Pb
atom 2.2892487912070396 15.6824614115842049 62.7966717722711181 I
atom 2.3646672212070392 12.5466042615842053 59.8618874622711132 I
atom 5.6821706212070398 15.6847001315842043 59.4916603422711177 I
atom 5.6393834750796730 25.0951750485548963 6.2738368600000003 C
atom 0.8584475850796727 25.0944707985548945 0.1566546500000000 N
atom 5.4054152450796726 25.0936327485548958 5.1995831499999996 H
atom 5.2672160050796730 19.7235745685548949 0.4529245100000000 H
atom 5.2659638950796728 24.1953460685548976 0.4557896000000000 H
atom 1.2679904050796729 19.6639433485548949 6.0332884099999999 H
atom 1.2668062450796729 24.2488330985548970 6.0355741900000002 H
atom 1.1377643750796729 18.8216603885548963 1.1671521000000000 H
atom 2.9765771550796729 21.9587365385548949 2.9951087599999999 Pb
atom 2.6463332950796730 21.9577317785548942 6.1244362600000004 I
atom 2.7217517250796726 18.8218746285548946 3.1896519500000000 I
atom 6.0392551250796727 21.9599704985548954 2.8194248300000000 I
atom 5.5997160574301086 25.0950216743935179 12.5707519169190132 C
atom 0.8187801674301087 25.0943174243935161 6.4535697069190130 N
atom 5.3657478274301083 25.0934793743935174 11.4964982069190125 H
atom 5.2275485874301086 19.7234211943935165 6.7498395669190128 H
atom 5.2262964774301084 24.1951926943935192 6.7527046569190130 H
atom 1.2283229874301089 19.6637899743935165 12.3302034669190128 H
atom 1.2271388274301089 24.2486797243935186 12.3324892469190139 H
atom 1.0980969574301089 18.8215070143935179 7.4640671569190129 H
atom 2.9369097374301090 21.9585831643935165 9.2920238169190128 Pb
atom 2.6066658774301090 21.9575784043935158 12.4213513169190133 I
atom 2.6820843074301086 18.8217212543935162 9.4865670069190138 I
atom 5.9995877074301083 21.9598171243935170 9.1163398869190129 I
atom 5.5600486397805451 25.0948683002321431 18.8676669738380269 C
atom 0.7791127497805448 25.0941640502321412 12.7504847638380259 N
atom 5.3260804097805448 25.0933260002321425 17.7934132638380262 H
atom 5.1878811697805451 19.7232678202321416 13.0467546238380265 H
atom 5.1866290597805449 24.1950393202321408 13.0496197138380250 H
atom 1.1886555697805450 19.6636366002321417 18.6271185238380248 H
atom 1.1874714097805450 24.2485263502321402 18.6294043038380259 H
atom 1.0584295397805450 18.8213536402321431 13.7609822138380267 H
atom 2.8972423197805450 21.9584297902321417 15.5889388738380248 Pb
atom 2.5669984597805451 21.9574250302321410 18.7182663738380271 I
atom 2.6424168897805447 18.8215678802321413 15.7834820638380258 I
atom 5.9599202897805448 21.9596637502321421 15.4132549438380266 I
atom 5.5203812221309807 25.0947149260707647 25.1645820307570389 C
atom 0.7394453321309808 25.0940106760707629 19.0473998207570396 N
atom 5.2864129921309804 25.0931726260707642 24.0903283207570382 H
atom 5.1482137521309808 19.7231144460707633 19.3436696807570385 H
atom 5.1469616421309805 24.1948859460707624 19.3465347707570388 H
atom 1.1489881521309808 19.6634832260707633 24.9240335807570403 H
atom 1.1478039921309811 24.2483729760707618 24.9263193607570415 H
atom 1.0187621221309811 18.8212002660707647 20.0578972707570387 H
atom 2.8575749021309811 21.9582764160707633 21.8858539307570403 Pb
atom 2.5273310421309811 21.9572716560707626 25.0151814307570390 I
atom 2.6027494721309807 18.8214145060707629 22.0803971207570413 I
atom 5.9202528721309804 21.9595103760707637 21.7101700007570386 I
atom 5.4807138044814172 25.0945615519093899 31.4614970876760509 C
atom 0.6997779144814169 25.0938573019093880 25.3443148776760516 N
atom 5.2467455744814169 25.0930192519093893 30.3872433776760502 H
atom 5.1085463344814173 19.7229610719093884 25.6405847376760505 H
atom 5.1072942244814170 24.1947325719093911 25.6434498276760507 H
atom 1.1093207344814169 19.6633298519093884 31.2209486376760523 H
atom 1.1081365744814169 24.2482196019093905 31.2232344176760535 H
atom 0.9790947044814170 18.8210468919093898 26.3548123276760506 H
atom 2.8179074844814171 21.9581230419093885 28.1827689876760523 Pb
atom 2.4876636244814172 21.9571182819093877 31.3120964876760510 I
atom 2.5630820544814168 18.8212611319093881 28.3773121776760533 I
atom 5.8805854544814169 21.9593570019093889 28.0070850576760506 I
atom 5.4410463868318528 25.0944081777480115 37.7584121445950629 C
atom 0.6601104968318530 25.0937039277480096 31.6412299345950636 N
atom 5.2070781568318525 25.0928658777480109 36.6841584345950622 H
atom 5.0688789168318529 19.7228076977480100 31.9374997945950625 H
atom 5.0676268068318526 24.1945791977480127 31.9403648845950627 H
atom 1.0696533168318529 19.6631764777480100 37.5178636945950643 H
atom 1.0684691568318530 24.2480662277480121 37.5201494745950654 H
atom 0.9394272868318529 18.8208935177480114 32.6517273845950626 H
atom 2.7782400668318532 21.9579696677480101 34.4796840445950608 Pb
atom 2.4479962068318533 21.9569649077480094 37.6090115445950630 I
atom 2.5234146368318529 18.8211077577480097 34.6742272345950653 I
atom 5.8409180368318525 21.9592036277480105 34.3040001145950626 I
atom 5.4013789691822893 25.0942548035866366 44.0553272015140820 C
atom 0.6204430791822890 25.0935505535866348 37.9381449915140792 N
atom 5.1674107391822890 25.0927125035866361 42.9810734915140813 H
atom 5.0292114991822894 19.7226543235866352 38.2344148515140816 H
atom 5.0279593891822891 24.1944258235866343 38.2372799415140818 H
atom 1.0299858991822890 19.6630231035866352 43.8147787515140763 H
atom 1.0288017391822890 24.2479128535866337 43.8170645315140774 H
atom 0.8997598691822890 18.8207401435866366 38.9486424415140817 H
atom 2.7385726491822893 21.9578162935866352 40.7765991015140798 Pb
atom 2.4083287891822893 21.9568115335866345 43.9059266015140821 I
atom 2.4837472191822889 18.8209543835866349 40.9711422915140773 I
atom 5.8012506191822890 21.9590502535866356 40.6009151715140817 I
atom 5.3617115515327249 25.0941014294252582 50.3522422584330940 C
atom 0.5807756615327250 25.0933971794252564 44.2350600484330911 N
atom 5.1277433215327246 25.0925591294252577 49.2779885484330933 H
atom 4.9895440815327250 19.7225009494252568 44.5313299084330936 H
atom 4.9882919715327247 24.1942724494252559 44.5341949984330938 H
atom 0.9903184815327251 19.6628697294252568 50.1116938084330883 H