#=======================================================
# FHI-aims file: perovskite.in
# Created using the Atomic Simulation Environment (ASE)
# Mon Feb 24 15:40:25 2020
#=======================================================
lattice_vector 6.2901199999999999 0.0000000000000000 0.0000000000000000 
lattice_vector 0.0000777450265576 6.2738899995182980 0.0000000000000000 
lattice_vector -0.0396674176495640 -0.0001533741613769 6.2969150569190129 
atom 5.6391502391861135 6.2735050535432402 6.2738368632354042 C
atom 0.8582143455203822 6.2728008009059941 0.1566546527860312 N
atom 5.4051820085608728 6.2719627466752916 5.1995831545250208 H
atom 5.2669827736550845 0.9019045727640724 0.4529245062140708 H
atom 5.2657306638474388 5.3736760651454913 0.4557896025649689 H
atom 1.2677571681534487 0.8422733527965833 6.0332884111460414 H
atom 1.2665730106910549 5.4271630959797408 6.0355741913117029 H
atom 1.1375311369296355 -0.0000096066909351 1.1671520965451097 H
atom 2.9763439172406128 3.1370665383893979 2.9951087560783578 Pb
atom 2.6461000623643858 3.1360617815394831 6.1244362565949437 I
atom 2.7215184936274812 0.0002046345955262 3.1896519467618711 I
atom 6.0390218906710604 3.1383004999684054 2.8194248259903172 I
