#=======================================================
# FHI-aims file: datas/sco-1-6ml-oh.in
# Created using the Atomic Simulation Environment (ASE)
# Fri Sep 18 15:44:39 2020
#=======================================================
lattice_vector 3.8018688908211424 0.0000000000000000 0.0000000000000000 
lattice_vector 0.0000000000000000 3.8018688908211424 0.0000000000000000 
lattice_vector 0.0000000000000000 0.0000000000000000 35.9660446865815260 
atom 1.9009344450000001 1.9009344450000001 0.0000000000000000 Sr
    constrain_relaxation .true.
atom 0.0000000000000000 0.0000000000000000 0.0000000000000000 O
    constrain_relaxation .true.
atom 1.9009344450000001 1.9009344450000001 3.8120080399999998 Sr
    constrain_relaxation .true.
atom 0.0000000000000000 0.0000000000000000 1.9060040199999999 Cr
    constrain_relaxation .true.
atom 1.9009344450000001 0.0000000000000000 1.9060040199999999 O
    constrain_relaxation .true.
atom 0.0000000000000000 1.9009344450000001 1.9060040199999999 O
    constrain_relaxation .true.
atom 0.0000000000000000 0.0000000000000000 3.8120080399999998 O
    constrain_relaxation .true.
atom 1.9009344399999999 1.9009344440000000 7.6342624189999997 Sr
atom 0.0000000000000000 0.0000000000000000 5.7180120600000004 Cr
    constrain_relaxation .true.
atom 1.9009344450000001 0.0000000000000000 5.7180120600000004 O
    constrain_relaxation .true.
atom 0.0000000000000000 1.9009344450000001 5.7180120600000004 O
    constrain_relaxation .true.
atom -0.0000000010000000 -0.0000000020000000 7.6279844109999999 O
atom 1.9009344360000000 1.9009344429999999 11.4627118279999998 Sr
atom -0.0000000110000000 -0.0000000040000000 9.5518584270000009 Cr
atom 1.9009344410000000 -0.0000000030000000 9.5450331740000003 O
atom -0.0000000070000000 1.9009344440000000 9.5450331790000007 O
atom -0.0000000040000000 -0.0000000020000000 11.4569009760000000 O
atom 1.9009344570000000 1.9009344500000001 15.2988097110000005 Sr
atom -0.0000000170000000 -0.0000000050000000 13.3707426520000006 Cr
atom 1.9009344349999999 -0.0000000020000000 13.3627606790000009 O
atom -0.0000000060000000 1.9009344420000001 13.3627606740000004 O
atom -0.0000000150000000 -0.0000000050000000 15.2630271349999997 O
atom 1.9009342309999999 1.9009343850000000 19.1820022749999985 Sr
atom 0.0000002370000000 0.0000000700000000 17.2085716320000017 Cr
atom 1.9009344630000000 0.0000000100000000 17.1734659130000011 O
atom 0.0000000350000000 1.9009344520000000 17.1734659110000010 O
atom 0.0000005410000000 0.0000001630000000 19.0653630089999986 O
atom -0.0000039360000000 -0.0000011720000000 21.0001145170000001 Cr
atom 1.9009370409999999 0.0000000820000000 20.8762535329999999 O
atom 0.0000002720000000 1.9009352230000001 20.8762535319999998 O
atom 0.0000011070000000 0.0000003530000000 22.7567574989999990 O
atom -0.0000005390000000 -0.0000001820000000 23.7184172890000013 H
