 C  N  H Pb  I 
 1.0000000000000000
     6.2901199999999999    0.0000000000000000    0.0000000000000000
     0.0000777450265576    6.2738899995182980    0.0000000000000000
    -0.0396674176495640   -0.0001533741613769    6.2969150569190129
   1   1   6   1   3
Cartesian
  5.6391502391861135  6.2735050535432402  6.2738368632354042
  0.8582143455203822  6.2728008009059941  0.1566546527860312
  5.4051820085608728  6.2719627466752916  5.1995831545250208
  5.2669827736550845  0.9019045727640724  0.4529245062140708
  5.2657306638474388  5.3736760651454913  0.4557896025649689
  1.2677571681534487  0.8422733527965833  6.0332884111460414
  1.2665730106910549  5.4271630959797408  6.0355741913117029
  1.1375311369296355 -0.0000096066909351  1.1671520965451097
  2.9763439172406128  3.1370665383893979  2.9951087560783578
  2.6461000623643858  3.1360617815394831  6.1244362565949437
  2.7215184936274812  0.0002046345955262  3.1896519467618711
  6.0390218906710604  3.1383004999684054  2.8194248259903172
