#=======================================================
# FHI-aims file: pt.in
# Created using the Atomic Simulation Environment (ASE)
# Mon Feb 24 15:42:22 2020
#=======================================================
lattice_vector 0.0000000000000000 1.9600000000000000 1.9600000000000000 
lattice_vector 1.9600000000000000 0.0000000000000000 1.9600000000000000 
lattice_vector 1.9600000000000000 1.9600000000000000 0.0000000000000000 
atom 0.00000000000000 0.0000000000000000 0.00000000000000 Pt
